Midori(Term_Paper)/MILP_Model/midori_sub.sol
# Solution for model Cipher_Substitution
# Objective value = 0
x_0_0 0
x_0_1 0
x_0_2 0
x_0_3 0
x_0_4 0
x_0_5 0
x_0_6 0
x_0_7 0
x_0_8 0
x_0_9 0
x_0_10 0
x_0_11 0
x_0_12 0
x_0_13 0
x_0_14 0
x_0_15 0
x_0_16 0
x_0_17 0
x_0_18 0
x_0_19 0
x_0_20 0
x_0_21 0
x_0_22 0
x_0_23 0
x_0_24 0
x_0_25 0
x_0_26 0
x_0_27 0
x_0_28 0
x_0_29 0
x_0_30 0
x_0_31 0
x_0_32 0
x_0_33 0
x_0_34 0
x_0_35 0
x_0_36 0
x_0_37 0
x_0_38 0
x_0_39 0
x_0_40 0
x_0_41 0
x_0_42 0
x_0_43 0
x_0_44 0
x_0_45 0
x_0_46 0
x_0_47 0
x_0_48 0
x_0_49 0
x_0_50 0
x_0_51 0
x_0_52 0
x_0_53 0
x_0_54 0
x_0_55 0
x_0_56 0
x_0_57 0
x_0_58 0
x_0_59 0
x_0_60 0
x_0_61 0
x_0_62 0
x_0_63 0
y_0_0 0
y_0_1 0
y_0_2 0
y_0_3 0
y_0_4 0
y_0_5 0
y_0_6 0
y_0_7 0
y_0_8 0
y_0_9 0
y_0_10 0
y_0_11 0
y_0_12 0
y_0_13 0
y_0_14 0
y_0_15 0
y_0_16 0
y_0_17 0
y_0_18 0
y_0_19 0
y_0_20 0
y_0_21 0
y_0_22 0
y_0_23 0
y_0_24 0
y_0_25 0
y_0_26 0
y_0_27 0
y_0_28 0
y_0_29 0
y_0_30 0
y_0_31 0
y_0_32 0
y_0_33 0
y_0_34 0
y_0_35 0
y_0_36 0
y_0_37 0
y_0_38 0
y_0_39 0
y_0_40 0
y_0_41 0
y_0_42 0
y_0_43 0
y_0_44 0
y_0_45 0
y_0_46 0
y_0_47 0
y_0_48 0
y_0_49 0
y_0_50 0
y_0_51 0
y_0_52 0
y_0_53 0
y_0_54 0
y_0_55 0
y_0_56 0
y_0_57 0
y_0_58 0
y_0_59 0
y_0_60 0
y_0_61 0
y_0_62 0
y_0_63 0
z_0_0 0
z_0_1 0
z_0_2 0
z_0_3 0
z_0_4 0
z_0_5 0
z_0_6 0
z_0_7 0
z_0_8 0
z_0_9 0
z_0_10 0
z_0_11 0
z_0_12 0
z_0_13 0
z_0_14 0
z_0_15 0
z_0_16 0
z_0_17 0
z_0_18 0
z_0_19 0
z_0_20 0
z_0_21 0
z_0_22 0
z_0_23 0
z_0_24 0
z_0_25 0
z_0_26 0
z_0_27 0
z_0_28 0
z_0_29 0
z_0_30 0
z_0_31 0
z_0_32 0
z_0_33 0
z_0_34 0
z_0_35 0
z_0_36 0
z_0_37 0
z_0_38 0
z_0_39 0
z_0_40 0
z_0_41 0
z_0_42 0
z_0_43 0
z_0_44 0
z_0_45 0
z_0_46 0
z_0_47 0
z_0_48 0
z_0_49 0
z_0_50 0
z_0_51 0
z_0_52 0
z_0_53 0
z_0_54 0
z_0_55 0
z_0_56 0
z_0_57 0
z_0_58 0
z_0_59 0
z_0_60 0
z_0_61 0
z_0_62 0
z_0_63 0
a_0_0 0
a_0_1 0
a_0_2 0
a_0_3 0
a_0_4 0
a_0_5 0
a_0_6 0
a_0_7 0
a_0_8 0
a_0_9 0
a_0_10 0
a_0_11 0
a_0_12 0
a_0_13 0
a_0_14 0
a_0_15 0
p_0_0_0 0
p_0_0_1 0
p_0_1_0 0
p_0_1_1 0
p_0_2_0 0
p_0_2_1 0
p_0_3_0 0
p_0_3_1 0
p_0_4_0 0
p_0_4_1 0
p_0_5_0 0
p_0_5_1 0
p_0_6_0 0
p_0_6_1 0
p_0_7_0 0
p_0_7_1 0
p_0_8_0 0
p_0_8_1 0
p_0_9_0 0
p_0_9_1 0
p_0_10_0 0
p_0_10_1 0
p_0_11_0 0
p_0_11_1 0
p_0_12_0 0
p_0_12_1 0
p_0_13_0 0
p_0_13_1 0
p_0_14_0 0
p_0_14_1 0
p_0_15_0 0
p_0_15_1 0
